\* Meal_Optimization *\
Minimize
Total_Cost_of_Food_daily:
 125 Food_7_Eleven,_Fresh,_Breakfast_Burger,_Bacon,_Egg_&_Cheese_1.00_pack
 + 20 Food_Apple,_Fresh,_With_Skin_0.25_large___3_1_4"_diameter
 + 32.5 Food_Apple,_Fresh,_With_Skin_0.75_large___3_1_4"_diameter
 + 47.5 Food_Apple,_Fresh,_With_Skin_1.00_large___3_1_4"_diameter
 + 40 Food_Apple,_Fresh,_With_Skin_1.00_medium___3"_diameter
 + 35 Food_Argentina_Corned_Beef_1.00_can
 + 100 Food_Bacon,_Pork_8.00_slice___6"_long
 + 12.5 Food_Banana,_Fresh_1.00_medium___7"_to_7_7_8"_long
 + 7.5 Food_Banana,_Fresh_1.00_small___6"_to_6_7_8"_long
 + 15 Food_Banana,_Fried_1.00_medium___7"_to_7_7_8"_long
 + 25 Food_Banana,_Fried_2.00_medium___7"_to_7_7_8"_long
 + 75 Food_Beef_Steak,_Sirloin,_No_Visible_Fat_Eaten_100.00_g
 + 525 Food_Beef_Steak,_Sirloin,_No_Visible_Fat_Eaten_700.00_g
 + 100 Food_Beef_with_Curry_Sauce_1.00_cup
 + 125 Food_Beer,_Higher_Alcohol_2.00_bottle___each_12_fl_oz
 + 75 Food_Brandy_4.00_jigger_shot___each_1.5_fl_oz
 + 17.5 Food_Brown_Rice,_Steamed_1.00_cup + 23 Food_C_Lium_Fibre_1.00_Pack
 + 35 Food_Century_Tuna,_Flakes_in_Oil_2.00_serving
 + 45 Food_Century_Tuna,_Flakes_in_Oil_3.00_serving
 + 55 Food_Century_Tuna,_Flakes_in_Oil_4.00_oz
 + 250 Food_Cheese_Popcorn_10.00_bag___single_serving___each_1_oz
 + 150 Food_Cheese_Popcorn_4.00_bag___single_serving___each_1_oz
 + 200 Food_Cheese_Popcorn_8.00_bag___single_serving___each_1_oz
 + 70 Food_Chicken_Breast,_Skin_Removed_Before_Cooking_1.00_cup
 + 50 Food_Chicken_Breast,_Skin_Removed_Before_Cooking_1.00_medium___split
 + 28 Food_Chicken_Breast,_Skin_Removed_Before_Cooking_100.00_g
 + 85 Food_Chicken_Breast,_Skin_Removed_Before_Cooking_200.00_g
 + 105 Food_Chicken_Breast,_Skin_Removed_Before_Cooking_300.00_g
 + 140 Food_Chicken_Breast,_Skin_Removed_Before_Cooking_400.00_g
 + 40 Food_Chicken_Nuggets_or_Sticks,_Store_Bought_3.00_nugget
 + 40 Food_Chicken_Thigh,_Skin_Eaten_1.00_large
 + 250 Food_Chicken_and_Potatoes_1.00_full_recipe
 + 100 Food_Chicken_and_Veggies_1.00_full_recipe
 + 100 Food_Chicken_patty,_frozen,_cooked_4.00_patty
 + 80 Food_Chicken_with_Gravy_1.00_cup
 + 10 Food_Chinese_Cabbage,_Pak_Choi,_Raw_25.00_g
 + 20 Food_Chinese_Cabbage,_Pak_Choi,_Raw_50.00_g
 + 12.5 Food_Cobra,_Energy_Drink,_ImmuniPlus_,_Original_0.50_x_240.0_ml
 + 25 Food_Cobra,_Energy_Drink,_ImmuniPlus_,_Original_1.00_x_240.0_ml
 + 30 Food_Collagen_Vit_C_Zinc_1.00__capsule
 + 110 Food_Dairy_Queen,_Blizzard,_Oreo_Cookies_1.00_medium
 + 80 Food_Egg_and_Corned_Beef_1.00_full_recipe
 + 90 Food_Egg_and_Tuna_1.00_full_recipe + 15 Food_Eggs,_Cooked_1.50_large
 + 30 Food_Eggs,_Cooked_3.00_large
 + 45 Food_Fico,_Potato_Crisps,_Sweet_&_Sour_100.00_g
 + 60 Food_Force_of_Nature,_Beef_Hotdog_1.00_Link
 + 7 Food_Gardenia,_High_Fiber_Wheat_Raisin_Loaf_1.00_Slice
 + 14 Food_Gardenia,_High_Fiber_Wheat_Raisin_Loaf_2.00_Slice
 + 12 Food_Gardenia,_High_Fiber_Whole_Wheat_Bread_1.00_x_2.0_Slices
 + 24 Food_Gardenia,_High_Fiber_Whole_Wheat_Bread_2.00_x_2.0_Slices
 + 30 Food_Hamburger_Bun,_White_2.00_medium___3_1_2"_diameter
 + 45 Food_Hosen_Baked_Beans_1.00_can + 80 Food_Iced_Coffee_1.00_full_recipe
 + 60 Food_Kalbe,_Fitbar,_Chocolate_1.00_bar
 + 70 Food_Kejoy,_Donut,_Dark_Chocolate_Almond_1.00_donut
 + 25 Food_Kettle_Korn_by_Joey_Salted_Caramel_1.66_serving
 + 50 Food_Kettle_Korn_by_Joey_Salted_Caramel_3.33_serving
 + 75 Food_Kettle_Korn_by_Joey_Salted_Caramel_5.00_serving
 + 50 Food_Kopiko,_Lucky_Day,_Strong_and_Creamy_Coffee_2.00_bottle_(180ml)
 + 25 Food_Kopiko,_Lucky_Day,_Strong_and_Creamy_Coffee__Copy__1.00_bottle_(180ml)
 + 45 Food_Lovely_Pao,_Siopao,_Chicken_Asado_1.00_siopao
 + 100 Food_Mac_and_Cheese_1.00_full_recipe
 + 150 Food_Mac_and_Cheese_2.00_full_recipe
 + 200 Food_Mac_and_Cheese_3.00_full_recipe
 + 50 Food_McCain,_Mixed_Veg_1.50_Serving
 + 80 Food_McDonald's,_French_Fries_2.00_large___order
 + 100 Food_McDonald's_Australia,_Chocolate_Soft_Serve_Caramel_Sundae,_Large_1.00_Serving
 + 10 Food_Mung_Beans,_Cooked_from_Dried_100.00_g
 + 20 Food_Mung_Beans,_Cooked_from_Dried_200.00_g
 + 40 Food_Mung_Beans,_Cooked_from_Dried_400.00_g
 + 15 Food_Nescafe,_Instant_Coffee_Stick,_Classic_1.00__stick
 + 5 Food_Nescafe,_Instant_Coffee__1.00_tsp
 + 10 Food_Nescafe,_Instant_Coffee__2.00_tsp
 + 20 Food_Olive_Garden,_Breadstick,_Garlic_Butter_4.00_Each
 + 60 Food_Olive_Garden,_House_Salad,_with_Dressing_1.00_Each
 + 100 Food_Olive_Garden,_pizza,_cheese,_kids'_2.00_Kids'
 + 90 Food_Olive_Garden,_soup,_chicken_&_gnocchi_2.00_Bowl
 + 50 Food_Pancake,_Plain_or_Buttermilk,_Homemade_3.00_each___4"_diameter
 + 10 Food_Peanut_Butter,_Regular,_Salted_1.00_tbsp
 + 40 Food_Pear,_Fresh_1.00_large
 + 120 Food_Pinkberry,_milkshake,_mango_pineapple_22.00_oz
 + 100 Food_Pizza,_Homemade_or_Restaurant,_One_Meat_Topping,_Thick_Crust_or_Deep_Dish_300.00_g
 + 80 Food_Protein_Drink_1.00_full_recipe
 + 70 Food_Pukka,_Pizza_Slice,_Pepperoni_1.00_Serving
 + 30 Food_Quaker,_Instant_Oatmeal,_Chocolate_32.00_g
 + 55 Food_Quaker,_Instant_Oatmeal,_Chocolate_64.00_g
 + 60 Food_Quaker,_Instant_Oatmeal,_Chocolate_66.00_g
 + 35 Food_Quaker,_Instant_Oatmeal,_Philippines_33.00_g
 + 25 Food_Quaker,_Instant_Oatmeal,_Plain_1.00_packet___prepared
 + 50 Food_Quaker,_Instant_Oatmeal,_Plain_2.00_packet___prepared
 + 40 Food_Quaker,_Oaties_Mini_Oat_Cookies,_Honey_Nuts_1.00_Package
 + 30 Food_Rebisco,_Crackers_1.00_Pack
 + 7 Food_Rice,_White,_Short_Grain,_Cooked,_Unenriched_1.00_cup
 + 10.5 Food_Rice,_White,_Short_Grain,_Cooked,_Unenriched_1.50_cup
 + 14 Food_Rice,_White,_Short_Grain,_Cooked,_Unenriched_2.00_cup
 + 21 Food_Rice,_White,_Short_Grain,_Cooked,_Unenriched_3.00_cup
 + 25 Food_Roast_Beef,_Rump,_No_Visible_Fat_Eaten_1.00_oz
 + 80 Food_Roast_Beef,_Rump,_No_Visible_Fat_Eaten_3.00_oz
 + 125 Food_Roast_Beef,_Rump,_No_Visible_Fat_Eaten_5.00_oz
 + 70 Food_Sardines_and_Rice_1.00_full_recipe
 + 17.5 Food_Selecta,_Non_Fat_Milk_0.50_x_8.28_fl_oz_(245ml)
 + 35 Food_Selecta,_Non_Fat_Milk_1.00_x_8.28_fl_oz_(245ml)
 + 110 Food_Shrimp_Pasta_1.00_full_recipe + 35 Food_Smart_C_1.00_x_350.0_ml
 + 15 Food_Spinach,_Raw_1.00_cup,_cut_pieces
 + 50 Food_Stik_O,_Chocolate_Wafer_Stick,_Junior_10.00_x_4.0_pieces
 + 10 Food_Stik_O,_Chocolate_Wafer_Stick,_Junior_2.00_x_4.0_pieces
 + 20 Food_Stik_O,_Chocolate_Wafer_Stick,_Junior_4.00_x_4.0_pieces
 + 25 Food_Stik_O,_Chocolate_Wafer_Stick,_Junior_5.00_x_4.0_pieces
 + 60 Food_Sweet_Potato,_Baked_400.00_g
 + 50 Food_Tesco,_Egg_&_Bacon_1.00_serving
 + 80 Food_Tripe_Stew_or_Menudo,_Pima_Indian_1.00_cup
 + 6 Food_White_Rice,_Steamed_0.50_cup + 12 Food_White_Rice,_Steamed_1.00_cup
 + 24 Food_White_Rice,_Steamed_2.00_cup + 36 Food_White_Rice,_Steamed_3.00_cup
Subject To
EnergyRequirement:
 414 Food_7_Eleven,_Fresh,_Breakfast_Burger,_Bacon,_Egg_&_Cheese_1.00_pack
 + 28.99 Food_Apple,_Fresh,_With_Skin_0.25_large___3_1_4"_diameter
 + 86.97 Food_Apple,_Fresh,_With_Skin_0.75_large___3_1_4"_diameter
 + 115.96 Food_Apple,_Fresh,_With_Skin_1.00_large___3_1_4"_diameter
 + 94.64 Food_Apple,_Fresh,_With_Skin_1.00_medium___3"_diameter
 + 180 Food_Argentina_Corned_Beef_1.00_can
 + 299.52 Food_Bacon,_Pork_8.00_slice___6"_long
 + 105.02 Food_Banana,_Fresh_1.00_medium___7"_to_7_7_8"_long
 + 89.89 Food_Banana,_Fresh_1.00_small___6"_to_6_7_8"_long
 + 165.24 Food_Banana,_Fried_1.00_medium___7"_to_7_7_8"_long
 + 330.48 Food_Banana,_Fried_2.00_medium___7"_to_7_7_8"_long
 + 160 Food_Beef_Steak,_Sirloin,_No_Visible_Fat_Eaten_100.00_g
 + 1120 Food_Beef_Steak,_Sirloin,_No_Visible_Fat_Eaten_700.00_g
 + 561.06 Food_Beef_with_Curry_Sauce_1.00_cup
 + 425.95 Food_Beer,_Higher_Alcohol_2.00_bottle___each_12_fl_oz
 + 385.31 Food_Brandy_4.00_jigger_shot___each_1.5_fl_oz
 + 248.45 Food_Brown_Rice,_Steamed_1.00_cup + 30 Food_C_Lium_Fibre_1.00_Pack
 + 200 Food_Century_Tuna,_Flakes_in_Oil_2.00_serving
 + 300 Food_Century_Tuna,_Flakes_in_Oil_3.00_serving
 + 202.5 Food_Century_Tuna,_Flakes_in_Oil_4.00_oz
 + 1525.98 Food_Cheese_Popcorn_10.00_bag___single_serving___each_1_oz
 + 610.39 Food_Cheese_Popcorn_4.00_bag___single_serving___each_1_oz
 + 1220.78 Food_Cheese_Popcorn_8.00_bag___single_serving___each_1_oz
 + 424.61 Food_Chicken_Breast,_Skin_Removed_Before_Cooking_1.00_cup
 + 207.6 Food_Chicken_Breast,_Skin_Removed_Before_Cooking_1.00_medium___split
 + 173 Food_Chicken_Breast,_Skin_Removed_Before_Cooking_100.00_g
 + 346 Food_Chicken_Breast,_Skin_Removed_Before_Cooking_200.00_g
 + 519 Food_Chicken_Breast,_Skin_Removed_Before_Cooking_300.00_g
 + 692 Food_Chicken_Breast,_Skin_Removed_Before_Cooking_400.00_g
 + 148.87 Food_Chicken_Nuggets_or_Sticks,_Store_Bought_3.00_nugget
 + 250.95 Food_Chicken_Thigh,_Skin_Eaten_1.00_large
 + 1319.44 Food_Chicken_and_Potatoes_1.00_full_recipe
 + 467.4 Food_Chicken_and_Veggies_1.00_full_recipe
 + 688.8 Food_Chicken_patty,_frozen,_cooked_4.00_patty
 + 297.46 Food_Chicken_with_Gravy_1.00_cup
 + 3.25 Food_Chinese_Cabbage,_Pak_Choi,_Raw_25.00_g
 + 6.5 Food_Chinese_Cabbage,_Pak_Choi,_Raw_50.00_g
 + 45 Food_Cobra,_Energy_Drink,_ImmuniPlus_,_Original_0.50_x_240.0_ml
 + 90 Food_Cobra,_Energy_Drink,_ImmuniPlus_,_Original_1.00_x_240.0_ml
 + 789.2 Food_Dairy_Queen,_Blizzard,_Oreo_Cookies_1.00_medium
 + 412.5 Food_Egg_and_Corned_Beef_1.00_full_recipe
 + 432.5 Food_Egg_and_Tuna_1.00_full_recipe
 + 116.25 Food_Eggs,_Cooked_1.50_large + 232.5 Food_Eggs,_Cooked_3.00_large
 + 492.26 Food_Fico,_Potato_Crisps,_Sweet_&_Sour_100.00_g
 + 140 Food_Force_of_Nature,_Beef_Hotdog_1.00_Link
 + 113 Food_Gardenia,_High_Fiber_Wheat_Raisin_Loaf_1.00_Slice
 + 226 Food_Gardenia,_High_Fiber_Wheat_Raisin_Loaf_2.00_Slice
 + 170 Food_Gardenia,_High_Fiber_Whole_Wheat_Bread_1.00_x_2.0_Slices
 + 340 Food_Gardenia,_High_Fiber_Whole_Wheat_Bread_2.00_x_2.0_Slices
 + 239.94 Food_Hamburger_Bun,_White_2.00_medium___3_1_2"_diameter
 + 226.58 Food_Hosen_Baked_Beans_1.00_can
 + 50 Food_Iced_Coffee_1.00_full_recipe
 + 90 Food_Kalbe,_Fitbar,_Chocolate_1.00_bar
 + 240 Food_Kejoy,_Donut,_Dark_Chocolate_Almond_1.00_donut
 + 215.8 Food_Kettle_Korn_by_Joey_Salted_Caramel_1.66_serving
 + 432.9 Food_Kettle_Korn_by_Joey_Salted_Caramel_3.33_serving
 + 650 Food_Kettle_Korn_by_Joey_Salted_Caramel_5.00_serving
 + 260 Food_Kopiko,_Lucky_Day,_Strong_and_Creamy_Coffee_2.00_bottle_(180ml)
 + 130 Food_Kopiko,_Lucky_Day,_Strong_and_Creamy_Coffee__Copy__1.00_bottle_(180ml)
 + 390 Food_Lovely_Pao,_Siopao,_Chicken_Asado_1.00_siopao
 + 436.4 Food_Mac_and_Cheese_1.00_full_recipe
 + 872.81 Food_Mac_and_Cheese_2.00_full_recipe
 + 1309.21 Food_Mac_and_Cheese_3.00_full_recipe
 + 98.97 Food_McCain,_Mixed_Veg_1.50_Serving
 + 968.71 Food_McDonald's,_French_Fries_2.00_large___order
 + 515.91 Food_McDonald's_Australia,_Chocolate_Soft_Serve_Caramel_Sundae,_Large_1.00_Serving
 + 105 Food_Mung_Beans,_Cooked_from_Dried_100.00_g
 + 210 Food_Mung_Beans,_Cooked_from_Dried_200.00_g
 + 420 Food_Mung_Beans,_Cooked_from_Dried_400.00_g
 + 80 Food_Nescafe,_Instant_Coffee_Stick,_Classic_1.00__stick
 + 5 Food_Nescafe,_Instant_Coffee__1.00_tsp
 + 10 Food_Nescafe,_Instant_Coffee__2.00_tsp
 + 560 Food_Olive_Garden,_Breadstick,_Garlic_Butter_4.00_Each
 + 150 Food_Olive_Garden,_House_Salad,_with_Dressing_1.00_Each
 + 800 Food_Olive_Garden,_pizza,_cheese,_kids'_2.00_Kids'
 + 460 Food_Olive_Garden,_soup,_chicken_&_gnocchi_2.00_Bowl
 + 297.93 Food_Pancake,_Plain_or_Buttermilk,_Homemade_3.00_each___4"_diameter
 + 94.98 Food_Peanut_Butter,_Regular,_Salted_1.00_tbsp
 + 131.1 Food_Pear,_Fresh_1.00_large
 + 474.57 Food_Pinkberry,_milkshake,_mango_pineapple_22.00_oz
 + 730.35 Food_Pizza,_Homemade_or_Restaurant,_One_Meat_Topping,_Thick_Crust_or_Deep_Dish_300.00_g
 + 170 Food_Protein_Drink_1.00_full_recipe
 + 294.02 Food_Pukka,_Pizza_Slice,_Pepperoni_1.00_Serving
 + 129.94 Food_Quaker,_Instant_Oatmeal,_Chocolate_32.00_g
 + 259.88 Food_Quaker,_Instant_Oatmeal,_Chocolate_64.00_g
 + 268 Food_Quaker,_Instant_Oatmeal,_Chocolate_66.00_g
 + 125 Food_Quaker,_Instant_Oatmeal,_Philippines_33.00_g
 + 101.36 Food_Quaker,_Instant_Oatmeal,_Plain_1.00_packet___prepared
 + 202.72 Food_Quaker,_Instant_Oatmeal,_Plain_2.00_packet___prepared
 + 125.72 Food_Quaker,_Oaties_Mini_Oat_Cookies,_Honey_Nuts_1.00_Package
 + 150 Food_Rebisco,_Crackers_1.00_Pack
 + 266.5 Food_Rice,_White,_Short_Grain,_Cooked,_Unenriched_1.00_cup
 + 399.75 Food_Rice,_White,_Short_Grain,_Cooked,_Unenriched_1.50_cup
 + 533 Food_Rice,_White,_Short_Grain,_Cooked,_Unenriched_2.00_cup
 + 799.5 Food_Rice,_White,_Short_Grain,_Cooked,_Unenriched_3.00_cup
 + 45.36 Food_Roast_Beef,_Rump,_No_Visible_Fat_Eaten_1.00_oz
 + 136.08 Food_Roast_Beef,_Rump,_No_Visible_Fat_Eaten_3.00_oz
 + 226.8 Food_Roast_Beef,_Rump,_No_Visible_Fat_Eaten_5.00_oz
 + 308.49 Food_Sardines_and_Rice_1.00_full_recipe
 + 45 Food_Selecta,_Non_Fat_Milk_0.50_x_8.28_fl_oz_(245ml)
 + 90 Food_Selecta,_Non_Fat_Milk_1.00_x_8.28_fl_oz_(245ml)
 + 330.22 Food_Shrimp_Pasta_1.00_full_recipe
 + 110 Food_Smart_C_1.00_x_350.0_ml
 + 6.9 Food_Spinach,_Raw_1.00_cup,_cut_pieces
 + 1300 Food_Stik_O,_Chocolate_Wafer_Stick,_Junior_10.00_x_4.0_pieces
 + 260 Food_Stik_O,_Chocolate_Wafer_Stick,_Junior_2.00_x_4.0_pieces
 + 520 Food_Stik_O,_Chocolate_Wafer_Stick,_Junior_4.00_x_4.0_pieces
 + 650 Food_Stik_O,_Chocolate_Wafer_Stick,_Junior_5.00_x_4.0_pieces
 + 360 Food_Sweet_Potato,_Baked_400.00_g
 + 195.61 Food_Tesco,_Egg_&_Bacon_1.00_serving
 + 334.04 Food_Tripe_Stew_or_Menudo,_Pima_Indian_1.00_cup
 + 102.7 Food_White_Rice,_Steamed_0.50_cup
 + 205.41 Food_White_Rice,_Steamed_1.00_cup
 + 410.81 Food_White_Rice,_Steamed_2.00_cup
 + 616.22 Food_White_Rice,_Steamed_3.00_cup <= 1500
FiberRequirement:
 0.5 Food_7_Eleven,_Fresh,_Breakfast_Burger,_Bacon,_Egg_&_Cheese_1.00_pack
 + 1.34 Food_Apple,_Fresh,_With_Skin_0.25_large___3_1_4"_diameter
 + 4.01 Food_Apple,_Fresh,_With_Skin_0.75_large___3_1_4"_diameter
 + 5.35 Food_Apple,_Fresh,_With_Skin_1.00_large___3_1_4"_diameter
 + 4.37 Food_Apple,_Fresh,_With_Skin_1.00_medium___3"_diameter
 + 2 Food_Argentina_Corned_Beef_1.00_can
 + 3.07 Food_Banana,_Fresh_1.00_medium___7"_to_7_7_8"_long
 + 2.63 Food_Banana,_Fresh_1.00_small___6"_to_6_7_8"_long
 + 3.07 Food_Banana,_Fried_1.00_medium___7"_to_7_7_8"_long
 + 6.14 Food_Banana,_Fried_2.00_medium___7"_to_7_7_8"_long
 + 1.88 Food_Beef_with_Curry_Sauce_1.00_cup
 + 3.23 Food_Brown_Rice,_Steamed_1.00_cup + 5 Food_C_Lium_Fibre_1.00_Pack
 + 27.13 Food_Cheese_Popcorn_10.00_bag___single_serving___each_1_oz
 + 10.85 Food_Cheese_Popcorn_4.00_bag___single_serving___each_1_oz
 + 21.7 Food_Cheese_Popcorn_8.00_bag___single_serving___each_1_oz
 + 0.29 Food_Chicken_Nuggets_or_Sticks,_Store_Bought_3.00_nugget
 + 12 Food_Chicken_and_Potatoes_1.00_full_recipe
 + 2.1 Food_Chicken_and_Veggies_1.00_full_recipe
 + 0.72 Food_Chicken_patty,_frozen,_cooked_4.00_patty
 + 0.14 Food_Chicken_with_Gravy_1.00_cup
 + 0.25 Food_Chinese_Cabbage,_Pak_Choi,_Raw_25.00_g
 + 0.5 Food_Chinese_Cabbage,_Pak_Choi,_Raw_50.00_g
 + 2.41 Food_Dairy_Queen,_Blizzard,_Oreo_Cookies_1.00_medium
 + 2 Food_Egg_and_Corned_Beef_1.00_full_recipe
 + 2.3 Food_Fico,_Potato_Crisps,_Sweet_&_Sour_100.00_g
 + 3 Food_Gardenia,_High_Fiber_Wheat_Raisin_Loaf_1.00_Slice
 + 6 Food_Gardenia,_High_Fiber_Wheat_Raisin_Loaf_2.00_Slice
 + 6 Food_Gardenia,_High_Fiber_Whole_Wheat_Bread_1.00_x_2.0_Slices
 + 12 Food_Gardenia,_High_Fiber_Whole_Wheat_Bread_2.00_x_2.0_Slices
 + 1.55 Food_Hamburger_Bun,_White_2.00_medium___3_1_2"_diameter
 + 14.7 Food_Hosen_Baked_Beans_1.00_can
 + Food_Kalbe,_Fitbar,_Chocolate_1.00_bar
 + 9 Food_Kejoy,_Donut,_Dark_Chocolate_Almond_1.00_donut
 + 0.83 Food_Kettle_Korn_by_Joey_Salted_Caramel_1.66_serving
 + 1.66 Food_Kettle_Korn_by_Joey_Salted_Caramel_3.33_serving
 + 2.5 Food_Kettle_Korn_by_Joey_Salted_Caramel_5.00_serving
 + 10.66 Food_Mac_and_Cheese_1.00_full_recipe
 + 21.32 Food_Mac_and_Cheese_2.00_full_recipe
 + 31.98 Food_Mac_and_Cheese_3.00_full_recipe
 + 5.81 Food_McCain,_Mixed_Veg_1.50_Serving
 + 13.47 Food_McDonald's,_French_Fries_2.00_large___order
 + 7.6 Food_Mung_Beans,_Cooked_from_Dried_100.00_g
 + 15.2 Food_Mung_Beans,_Cooked_from_Dried_200.00_g
 + 30.4 Food_Mung_Beans,_Cooked_from_Dried_400.00_g
 + 0.5 Food_Nescafe,_Instant_Coffee_Stick,_Classic_1.00__stick
 + 4 Food_Olive_Garden,_Breadstick,_Garlic_Butter_4.00_Each
 + 2 Food_Olive_Garden,_House_Salad,_with_Dressing_1.00_Each
 + 6 Food_Olive_Garden,_pizza,_cheese,_kids'_2.00_Kids'
 + 2 Food_Olive_Garden,_soup,_chicken_&_gnocchi_2.00_Bowl
 + 1.26 Food_Pancake,_Plain_or_Buttermilk,_Homemade_3.00_each___4"_diameter
 + 1.02 Food_Peanut_Butter,_Regular,_Salted_1.00_tbsp
 + 7.27 Food_Pear,_Fresh_1.00_large
 + 2.64 Food_Pinkberry,_milkshake,_mango_pineapple_22.00_oz
 + 7.13 Food_Pizza,_Homemade_or_Restaurant,_One_Meat_Topping,_Thick_Crust_or_Deep_Dish_300.00_g
 + 1.4 Food_Pukka,_Pizza_Slice,_Pepperoni_1.00_Serving
 + 2.72 Food_Quaker,_Instant_Oatmeal,_Chocolate_32.00_g
 + 5.43 Food_Quaker,_Instant_Oatmeal,_Chocolate_64.00_g
 + 5.6 Food_Quaker,_Instant_Oatmeal,_Chocolate_66.00_g
 + 3.2 Food_Quaker,_Instant_Oatmeal,_Philippines_33.00_g
 + 2.8 Food_Quaker,_Instant_Oatmeal,_Plain_1.00_packet___prepared
 + 5.6 Food_Quaker,_Instant_Oatmeal,_Plain_2.00_packet___prepared
 + 0.96 Food_Quaker,_Oaties_Mini_Oat_Cookies,_Honey_Nuts_1.00_Package
 + 0.54 Food_Sardines_and_Rice_1.00_full_recipe
 + 0.44 Food_Shrimp_Pasta_1.00_full_recipe
 + 0.66 Food_Spinach,_Raw_1.00_cup,_cut_pieces
 + 13.2 Food_Sweet_Potato,_Baked_400.00_g
 + 2.79 Food_Tripe_Stew_or_Menudo,_Pima_Indian_1.00_cup
 + 0.27 Food_White_Rice,_Steamed_0.50_cup
 + 0.54 Food_White_Rice,_Steamed_1.00_cup
 + 1.07 Food_White_Rice,_Steamed_2.00_cup
 + 1.61 Food_White_Rice,_Steamed_3.00_cup >= 40
ProteinRequirement:
 14 Food_7_Eleven,_Fresh,_Breakfast_Burger,_Bacon,_Egg_&_Cheese_1.00_pack
 + 0.14 Food_Apple,_Fresh,_With_Skin_0.25_large___3_1_4"_diameter
 + 0.43 Food_Apple,_Fresh,_With_Skin_0.75_large___3_1_4"_diameter
 + 0.58 Food_Apple,_Fresh,_With_Skin_1.00_large___3_1_4"_diameter
 + 0.47 Food_Apple,_Fresh,_With_Skin_1.00_medium___3"_diameter
 + 12 Food_Argentina_Corned_Beef_1.00_can
 + 21.71 Food_Bacon,_Pork_8.00_slice___6"_long
 + 1.29 Food_Banana,_Fresh_1.00_medium___7"_to_7_7_8"_long
 + 1.1 Food_Banana,_Fresh_1.00_small___6"_to_6_7_8"_long
 + 1.29 Food_Banana,_Fried_1.00_medium___7"_to_7_7_8"_long
 + 2.57 Food_Banana,_Fried_2.00_medium___7"_to_7_7_8"_long
 + 29.9 Food_Beef_Steak,_Sirloin,_No_Visible_Fat_Eaten_100.00_g
 + 209.3 Food_Beef_Steak,_Sirloin,_No_Visible_Fat_Eaten_700.00_g
 + 22.65 Food_Beef_with_Curry_Sauce_1.00_cup
 + 6.61 Food_Beer,_Higher_Alcohol_2.00_bottle___each_12_fl_oz
 + 5.53 Food_Brown_Rice,_Steamed_1.00_cup
 + 14 Food_Century_Tuna,_Flakes_in_Oil_2.00_serving
 + 21 Food_Century_Tuna,_Flakes_in_Oil_3.00_serving
 + 14.17 Food_Century_Tuna,_Flakes_in_Oil_4.00_oz
 + 31.2 Food_Cheese_Popcorn_10.00_bag___single_serving___each_1_oz
 + 12.48 Food_Cheese_Popcorn_4.00_bag___single_serving___each_1_oz
 + 24.96 Food_Cheese_Popcorn_8.00_bag___single_serving___each_1_oz
 + 75.86 Food_Chicken_Breast,_Skin_Removed_Before_Cooking_1.00_cup
 + 37.09 Food_Chicken_Breast,_Skin_Removed_Before_Cooking_1.00_medium___split
 + 30.91 Food_Chicken_Breast,_Skin_Removed_Before_Cooking_100.00_g
 + 61.82 Food_Chicken_Breast,_Skin_Removed_Before_Cooking_200.00_g
 + 92.73 Food_Chicken_Breast,_Skin_Removed_Before_Cooking_300.00_g
 + 123.64 Food_Chicken_Breast,_Skin_Removed_Before_Cooking_400.00_g
 + 7.64 Food_Chicken_Nuggets_or_Sticks,_Store_Bought_3.00_nugget
 + 29.6 Food_Chicken_Thigh,_Skin_Eaten_1.00_large
 + 117.8 Food_Chicken_and_Potatoes_1.00_full_recipe
 + 41.66 Food_Chicken_and_Veggies_1.00_full_recipe
 + 35.64 Food_Chicken_patty,_frozen,_cooked_4.00_patty
 + 41.69 Food_Chicken_with_Gravy_1.00_cup
 + 0.38 Food_Chinese_Cabbage,_Pak_Choi,_Raw_25.00_g
 + 0.75 Food_Chinese_Cabbage,_Pak_Choi,_Raw_50.00_g
 + 18.78 Food_Dairy_Queen,_Blizzard,_Oreo_Cookies_1.00_medium
 + 30.87 Food_Egg_and_Corned_Beef_1.00_full_recipe
 + 32.87 Food_Egg_and_Tuna_1.00_full_recipe
 + 9.44 Food_Eggs,_Cooked_1.50_large + 18.87 Food_Eggs,_Cooked_3.00_large
 + 6.5 Food_Fico,_Potato_Crisps,_Sweet_&_Sour_100.00_g
 + 8 Food_Force_of_Nature,_Beef_Hotdog_1.00_Link
 + 4 Food_Gardenia,_High_Fiber_Wheat_Raisin_Loaf_1.00_Slice
 + 8 Food_Gardenia,_High_Fiber_Wheat_Raisin_Loaf_2.00_Slice
 + 8 Food_Gardenia,_High_Fiber_Whole_Wheat_Bread_1.00_x_2.0_Slices
 + 16 Food_Gardenia,_High_Fiber_Whole_Wheat_Bread_2.00_x_2.0_Slices
 + 8.4 Food_Hamburger_Bun,_White_2.00_medium___3_1_2"_diameter
 + 17.1 Food_Hosen_Baked_Beans_1.00_can
 + 4.3 Food_Iced_Coffee_1.00_full_recipe
 + 3 Food_Kalbe,_Fitbar,_Chocolate_1.00_bar
 + 6 Food_Kejoy,_Donut,_Dark_Chocolate_Almond_1.00_donut
 + 1.66 Food_Kettle_Korn_by_Joey_Salted_Caramel_1.66_serving
 + 3.33 Food_Kettle_Korn_by_Joey_Salted_Caramel_3.33_serving
 + 5 Food_Kettle_Korn_by_Joey_Salted_Caramel_5.00_serving
 + 3 Food_Kopiko,_Lucky_Day,_Strong_and_Creamy_Coffee__Copy__1.00_bottle_(180ml)
 + 21 Food_Lovely_Pao,_Siopao,_Chicken_Asado_1.00_siopao
 + 11.28 Food_Mac_and_Cheese_1.00_full_recipe
 + 22.56 Food_Mac_and_Cheese_2.00_full_recipe
 + 33.84 Food_Mac_and_Cheese_3.00_full_recipe
 + 3.19 Food_McCain,_Mixed_Veg_1.50_Serving
 + 11.23 Food_McDonald's,_French_Fries_2.00_large___order
 + 8.1 Food_McDonald's_Australia,_Chocolate_Soft_Serve_Caramel_Sundae,_Large_1.00_Serving
 + 7.02 Food_Mung_Beans,_Cooked_from_Dried_100.00_g
 + 14.04 Food_Mung_Beans,_Cooked_from_Dried_200.00_g
 + 28.08 Food_Mung_Beans,_Cooked_from_Dried_400.00_g
 + Food_Nescafe,_Instant_Coffee_Stick,_Classic_1.00__stick
 + 0.3 Food_Nescafe,_Instant_Coffee__1.00_tsp
 + 0.6 Food_Nescafe,_Instant_Coffee__2.00_tsp
 + 16 Food_Olive_Garden,_Breadstick,_Garlic_Butter_4.00_Each
 + 3 Food_Olive_Garden,_House_Salad,_with_Dressing_1.00_Each
 + 34 Food_Olive_Garden,_pizza,_cheese,_kids'_2.00_Kids'
 + 22 Food_Olive_Garden,_soup,_chicken_&_gnocchi_2.00_Bowl
 + 8.3 Food_Pancake,_Plain_or_Buttermilk,_Homemade_3.00_each___4"_diameter
 + 3.87 Food_Peanut_Butter,_Regular,_Salted_1.00_tbsp
 + 0.83 Food_Pear,_Fresh_1.00_large
 + 19.77 Food_Pinkberry,_milkshake,_mango_pineapple_22.00_oz
 + 28.26 Food_Pizza,_Homemade_or_Restaurant,_One_Meat_Topping,_Thick_Crust_or_Deep_Dish_300.00_g
 + 28.5 Food_Protein_Drink_1.00_full_recipe
 + 8.3 Food_Pukka,_Pizza_Slice,_Pepperoni_1.00_Serving
 + 3.88 Food_Quaker,_Instant_Oatmeal,_Chocolate_32.00_g
 + 7.76 Food_Quaker,_Instant_Oatmeal,_Chocolate_64.00_g
 + 8 Food_Quaker,_Instant_Oatmeal,_Chocolate_66.00_g
 + 4 Food_Quaker,_Instant_Oatmeal,_Philippines_33.00_g
 + 3.34 Food_Quaker,_Instant_Oatmeal,_Plain_1.00_packet___prepared
 + 6.67 Food_Quaker,_Instant_Oatmeal,_Plain_2.00_packet___prepared
 + 2.3 Food_Quaker,_Oaties_Mini_Oat_Cookies,_Honey_Nuts_1.00_Package
 + 3 Food_Rebisco,_Crackers_1.00_Pack
 + 4.84 Food_Rice,_White,_Short_Grain,_Cooked,_Unenriched_1.00_cup
 + 7.26 Food_Rice,_White,_Short_Grain,_Cooked,_Unenriched_1.50_cup
 + 9.68 Food_Rice,_White,_Short_Grain,_Cooked,_Unenriched_2.00_cup
 + 14.51 Food_Rice,_White,_Short_Grain,_Cooked,_Unenriched_3.00_cup
 + 8.48 Food_Roast_Beef,_Rump,_No_Visible_Fat_Eaten_1.00_oz
 + 25.43 Food_Roast_Beef,_Rump,_No_Visible_Fat_Eaten_3.00_oz
 + 42.38 Food_Roast_Beef,_Rump,_No_Visible_Fat_Eaten_5.00_oz
 + 16.62 Food_Sardines_and_Rice_1.00_full_recipe
 + 4 Food_Selecta,_Non_Fat_Milk_0.50_x_8.28_fl_oz_(245ml)
 + 8 Food_Selecta,_Non_Fat_Milk_1.00_x_8.28_fl_oz_(245ml)
 + 23.1 Food_Shrimp_Pasta_1.00_full_recipe
 + 0.86 Food_Spinach,_Raw_1.00_cup,_cut_pieces
 + 20 Food_Stik_O,_Chocolate_Wafer_Stick,_Junior_10.00_x_4.0_pieces
 + 4 Food_Stik_O,_Chocolate_Wafer_Stick,_Junior_2.00_x_4.0_pieces
 + 8 Food_Stik_O,_Chocolate_Wafer_Stick,_Junior_4.00_x_4.0_pieces
 + 10 Food_Stik_O,_Chocolate_Wafer_Stick,_Junior_5.00_x_4.0_pieces
 + 8.04 Food_Sweet_Potato,_Baked_400.00_g
 + 12.8 Food_Tesco,_Egg_&_Bacon_1.00_serving
 + 16.51 Food_Tripe_Stew_or_Menudo,_Pima_Indian_1.00_cup
 + 2.13 Food_White_Rice,_Steamed_0.50_cup
 + 4.25 Food_White_Rice,_Steamed_1.00_cup
 + 8.5 Food_White_Rice,_Steamed_2.00_cup
 + 12.75 Food_White_Rice,_Steamed_3.00_cup >= 120
End
